ssat_solver_solve2
#level: 2
Abc_NtkNodeNum(s->pNtk): 385  , BDD limit: 10240
Build BDD success
level 1: 10 element
Exist
level 0: 10 element
Random
c ssat solving in ABC
#var: 20
s SATISFIABLE
  > Upper bound = 3.691406e-01
  > Lower bound = 3.691406e-01
FINISHED CPU 0.13 MEM 60476 MAXMEM 60476 STALE 0 MAXMEM_RSS 17548
<time name="ALL">190</time>
real 0.27
user 0.25
sys 0.12
